cliques=[{0,1,3,6,23,43},{0,1,3,6,23,43},{2,7,16,19,32,47,56,57,75,77},{0,1,3,6,23,43},{3,4,14,53,58,75,76,80},{5,24,26,39},{0,1,3,6,23,43},{2,7,16,19,32,47,56,57,75,77},{7,8,13,24,50,51,59,60},{9,11,12,31,56,79},{10,30,32,52,64,65,83},{11,14,15,29,41,46,71,83},{9,12,11,31,56,79},{7,8,13,24,50,51,59,60},{3,4,14,53,58,75,76,80},{0,15,17,18,27,48,49,66,77},{2,7,16,19,32,47,56,57,75,77},{0,15,17,18,27,48,49,66,77},{0,15,17,18,27,48,49,66,77},{2,7,16,19,32,47,56,57,75,77},{9,20,30,34,74},{12,13,21,48,61,72,78,81},{4,22,44,45},{0,1,3,6,23,43},{7,8,13,24,50,51,59,60},{23,25,26,47,63,72,73,74,82},{5,24,26,39},{0,15,17,18,27,48,49,66,77},{1,28,36,68,70,81},{11,14,15,29,41,46,71,83},{9,20,30,34,74},{9,11,12,31,56,79},{2,7,16,19,32,47,56,57,75,77},{2,6,33,34,61,62,67,71},{2,6,33,34,61,62,67,71},{33,35,42,49,50,64},{1,28,36,68,70,81},{19,37,43,44,55,78},{8,17,31,38,55,68,82},{5,24,26,39},{40,39,45,46},{11,14,15,29,41,46,71,83},{21,22,38,41,42,69},{0,1,3,6,23,43},{4,22,44,45},{4,22,44,45},{11,14,15,29,41,46,71,83},{2,7,16,19,32,47,56,57,75,77},{0,15,17,18,27,48,49,66,77},{0,15,17,18,27,48,49,66,77},{7,8,13,24,50,51,59,60},{7,8,13,24,50,51,59,60},{10,30,32,52,64,65,83},{3,4,14,53,58,75,76,80},{28,37,52,54,59,66,79,80},{8,17,31,38,55,68,82},{2,7,16,19,32,47,56,57,75,77},{2,7,16,19,32,47,56,57,75,77},{3,4,14,53,58,75,76,80},{7,8,13,24,50,51,59,60},{7,8,13,24,50,51,59,60},{2,6,33,34,61,62,67,71},{2,6,33,34,61,62,67,71},{23,25,26,47,63,72,73,74,82},{10,30,32,52,64,65,83},{10,30,32,52,64,65,83},{0,15,17,18,27,48,49,66,77},{2,6,33,34,61,62,67,71},{1,28,36,68,70,81},{21,22,38,41,42,69},{1,28,36,68,70,81},{2,6,33,34,61,62,67,71},{12,13,21,48,61,72,78,81},{23,25,26,47,63,72,73,74,82},{9,20,30,34,74},{2,7,16,19,32,47,56,57,75,77},{3,4,14,53,58,75,76,80},{0,15,17,18,27,48,49,66,77},{12,13,21,48,61,72,78,81},{9,11,12,31,56,79},{3,4,14,53,58,75,76,80},{1,28,36,68,70,81},{8,17,31,38,55,68,82},{11,14,15,29,41,46,71,83}];
nr_cliques=84;
